NAME          ClpDefau
ROWS
 N  OBJROW
 L  R_60_0
 L  R_60_1
 L  R_60_2
 L  R_60_3
 L  R_60_4
 L  R_60_5
 L  R_60_6
 L  R_60_7
 L  R_60_8
 L  R_60_9
 L  R_60_10
 L  R_60_11
 L  R_60_12
 L  R_60_13
 L  R_60_14
 L  R_60_15
COLUMNS
    x_0       OBJROW     -1.           R_60_4    1.          
    x_0       R_60_10   3.             R_60_12   6.          
    x_0       R_60_13   9.          
    x_1       OBJROW     -2.           R_60_1    8.          
    x_1       R_60_10   7.          
    x_2       OBJROW     -2.           R_60_13   10.         
    x_3       OBJROW     -6.           R_60_12   6.          
    x_3       R_60_15   2.          
    x_4       OBJROW     -3.           R_60_0    1.          
    x_4       R_60_4    9.             R_60_5    5.          
    x_4       R_60_11   6.             R_60_14   2.          
    x_5       OBJROW     -5.           R_60_0    1.          
    x_5       R_60_2    3.             R_60_5    10.         
    x_5       R_60_6    4.             R_60_7    1.          
    x_5       R_60_8    10.         
    x_6       OBJROW     -5.           R_60_0    5.          
    x_6       R_60_8    8.          
    x_7       OBJROW     -10.          R_60_8    3.          
    x_7       R_60_9    4.          
    x_8       OBJROW     -4.           R_60_8    1.          
    x_8       R_60_10   9.             R_60_13   3.          
    x_8       R_60_15   1.          
    x_9       OBJROW     -10.          R_60_11   7.          
    x_10      OBJROW     -1.           R_60_1    2.          
    x_10      R_60_6    7.             R_60_7    5.          
    x_10      R_60_8    1.             R_60_10   8.          
    x_10      R_60_14   1.          
    x_11      OBJROW     -10.          R_60_1    8.          
    x_11      R_60_2    10.            R_60_5    6.          
    x_11      R_60_7    2.             R_60_8    10.         
    x_11      R_60_13   8.          
    x_12      OBJROW     -3.        
    x_13      OBJROW     -7.           R_60_4    6.          
    x_13      R_60_5    9.             R_60_6    7.          
    x_13      R_60_12   5.          
    x_14      OBJROW     -7.           R_60_1    5.          
    x_14      R_60_2    9.             R_60_9    3.          
    x_15      OBJROW     -9.           R_60_0    8.          
    x_15      R_60_6    5.          
RHS
    RHS       R_60_0    21.            R_60_1    17.         
    RHS       R_60_2    20.            R_60_3    20.         
    RHS       R_60_4    17.            R_60_5    19.         
    RHS       R_60_6    21.            R_60_7    19.         
    RHS       R_60_8    21.            R_60_9    16.         
    RHS       R_60_10   18.            R_60_11   19.         
    RHS       R_60_12   20.            R_60_13   21.         
    RHS       R_60_14   19.            R_60_15   21.         
BOUNDS
 UI BOUND     x_0       10.         
 UI BOUND     x_1       10.         
 UI BOUND     x_2       10.         
 UI BOUND     x_3       10.         
 UI BOUND     x_4       10.         
 UI BOUND     x_5       10.         
 UI BOUND     x_6       10.         
 UI BOUND     x_7       10.         
 UI BOUND     x_8       10.         
 UI BOUND     x_9       10.         
 UI BOUND     x_10      10.         
 UI BOUND     x_11      10.         
 UI BOUND     x_12      10.         
 UI BOUND     x_13      10.         
 UI BOUND     x_14      10.         
 UI BOUND     x_15      10.         
ENDATA
